benchmarks/VRPTW/TSPTW/solution/n20w180.003.txt.solution
1 4 16 10 17 20 13 8 19 3 5 12 14 15 11 18 21 7 9 2 6 
271
